%BLOCK LATTICE_CART
    4.2112000000    0.0000000000    0.0000000000
    0.0000000000    4.2112000000    0.0000000000
    0.0000000000    0.0000000000   4.2112000000
%ENDBLOCK LATTICE_CART

%BLOCK POSITIONS_ABS
     O    2.10560000000    2.10560000000    2.10560000000
     O    2.10560000000    0.0000000000    0.0000000000
     O    0.0000000000    2.10560000000    0.0000000000
     O    0.0000000000    0.0000000000    2.10560000000
    Mg    0.0000000000    0.0000000000    0.0000000000
    Mg    0.0000000000    2.10560000000    2.10560000000
    Mg    2.10560000000    0.0000000000    2.10560000000
    Mg    2.10560000000    2.10560000000    0.0000000000
%ENDBLOCK POSITIONS_ABS

%block species_pot
NCP
%endblock species_pot

kpoint_mp_grid 9 9 9
